
Gurobi 7.0.2 (win64, Python) logging started 10/03/17 01:50:53


Gurobi 6.5.1 (win64) logging started 10/18/17 10:36:53


Gurobi 6.5.1 (win64) logging started 10/18/17 11:14:09


Gurobi 6.5.1 (win64) logging started 10/18/17 11:14:28


Gurobi 6.5.1 (win64) logging started 10/18/17 11:15:34


Gurobi 6.5.1 (win64) logging started 10/18/17 11:20:33


Gurobi 6.5.1 (win64) logging started 10/18/17 11:44:11


Gurobi 6.5.1 (win64) logging started 10/18/17 11:47:18


Gurobi 6.5.1 (win64) logging started 10/18/17 12:15:08


Gurobi 6.5.1 (win64) logging started 10/18/17 12:20:46


Gurobi 6.5.1 (win64) logging started 10/18/17 12:24:26


Gurobi 6.5.1 (win64) logging started 10/18/17 12:26:04


Gurobi 6.5.1 (win64) logging started 10/18/17 12:27:24


Gurobi 6.5.1 (win64) logging started 10/18/17 12:43:21


Gurobi 6.5.1 (win64) logging started 10/18/17 12:44:56


Gurobi 6.5.1 (win64) logging started 10/18/17 12:49:12


Gurobi 6.5.1 (win64) logging started 10/18/17 12:53:30


Gurobi 6.5.1 (win64) logging started 10/18/17 12:59:34


Gurobi 6.5.1 (win64) logging started 10/18/17 13:07:23


Gurobi 7.0.2 (win64, Python) logging started 10/18/17 23:38:01


Gurobi 7.0.2 (win64, Python) logging started 10/19/17 01:27:44


Gurobi 7.0.2 (win64, Python) logging started 10/19/17 12:47:45


Gurobi 7.0.2 (win64, Python) logging started 10/19/17 12:49:34


Gurobi 7.0.2 (win64, Python) logging started 10/19/17 12:50:31


Gurobi 7.0.2 (win64, Python) logging started 10/19/17 12:51:07


Gurobi 7.0.2 (win64, Python) logging started 10/19/17 12:57:42


Gurobi 7.0.2 (win64, Python) logging started 10/25/17 23:09:14


Gurobi 6.5.1 (win64) logging started 10/31/17 18:28:04


Gurobi 6.5.1 (win64) logging started 11/04/17 14:50:11


Gurobi 6.5.1 (win64) logging started 11/05/17 18:58:11


Gurobi 6.5.1 (win64) logging started 11/05/17 18:59:52


Gurobi 6.5.1 (win64) logging started 11/05/17 21:33:29


Gurobi 6.5.1 (win64) logging started 11/05/17 22:16:23


Gurobi 6.5.1 (win64) logging started 11/06/17 09:34:22


Gurobi 6.5.1 (win64) logging started 11/06/17 16:12:30


Gurobi 6.5.1 (win64) logging started 11/06/17 20:21:20


Gurobi 6.5.1 (win64) logging started 11/07/17 13:59:38


Gurobi 6.5.1 (win64) logging started 11/07/17 13:59:49


Gurobi 7.0.2 (win64, Python) logging started 11/07/17 23:32:33


Gurobi 7.0.2 (win64, Python) logging started 11/08/17 23:00:12


Gurobi 7.0.2 (win64, Python) logging started 11/09/17 01:07:29


Gurobi 6.5.1 (win64) logging started 11/09/17 11:57:26


Gurobi 6.5.1 (win64) logging started 11/09/17 13:16:47


Gurobi 6.5.1 (win64) logging started 11/09/17 15:42:39


Gurobi 6.5.1 (win64) logging started 11/10/17 16:17:29


Gurobi 6.5.1 (win64) logging started 11/10/17 16:29:53


Gurobi 7.0.2 (win64, Python) logging started 11/10/17 20:06:36


Gurobi 7.0.2 (win64, Python) logging started 11/11/17 14:11:43


Gurobi 7.0.2 (win64, Python) logging started 11/11/17 14:11:57


Gurobi 7.0.2 (win64, Python) logging started 11/11/17 14:13:26


Gurobi 7.0.2 (win64, Python) logging started 11/11/17 14:14:32


Gurobi 7.0.2 (win64, Python) logging started 11/11/17 14:15:50


Gurobi 7.0.2 (win64, Python) logging started 11/11/17 14:18:02


Gurobi 7.0.2 (win64, Python) logging started 11/11/17 14:21:49


Gurobi 7.0.2 (win64, Python) logging started 11/11/17 14:23:30


Gurobi 7.0.2 (win64, Python) logging started 11/11/17 14:24:06


Gurobi 7.0.2 (win64, Python) logging started 11/11/17 14:24:49


Gurobi 7.0.2 (win64, Python) logging started 11/11/17 14:26:22


Gurobi 7.0.2 (win64, Python) logging started 11/11/17 14:43:28


Gurobi 6.5.1 (win64) logging started 03/07/18 11:28:57


Gurobi 6.5.1 (win64) logging started 03/07/18 13:45:34


Gurobi 6.5.1 (win64) logging started 03/07/18 14:12:05


Gurobi 6.5.1 (win64) logging started 03/07/18 14:21:42


Gurobi 7.0.2 (win64, Python) logging started 03/08/18 01:02:27


Gurobi 7.0.2 (win64, Python) logging started 03/08/18 14:38:43


Gurobi 7.0.2 (win64, Python) logging started 03/08/18 14:53:46


Gurobi 7.0.2 (win64, Python) logging started 03/08/18 15:04:46


Gurobi 7.0.2 (win64, Python) logging started 03/08/18 15:06:14


Gurobi 6.5.1 (win64) logging started 03/15/18 12:26:17


Gurobi 6.5.1 (win64) logging started 03/15/18 12:44:13


Gurobi 6.5.1 (win64) logging started 03/28/18 16:01:59


Gurobi 6.5.1 (win64) logging started 03/28/18 16:09:47


Gurobi 6.5.1 (win64) logging started 04/18/18 12:15:36


Gurobi 6.5.1 (win64) logging started 04/18/18 12:24:00


Gurobi 6.5.1 (win64) logging started 04/18/18 12:30:53


Gurobi 6.5.1 (win64) logging started 04/18/18 12:33:22


Gurobi 6.5.1 (win64) logging started 04/18/18 12:34:23


Gurobi 6.5.1 (win64) logging started 04/18/18 16:16:04


Gurobi 6.5.1 (win64) logging started 04/18/18 16:36:59


Gurobi 6.5.1 (win64) logging started 04/18/18 16:42:18


Gurobi 6.5.1 (win64) logging started 04/18/18 16:47:24


Gurobi 6.5.1 (win64) logging started 04/22/18 22:26:26


Gurobi 6.5.1 (win64) logging started 04/23/18 00:21:35


Gurobi 6.5.1 (win64) logging started 04/23/18 00:23:20


Gurobi 6.5.1 (win64) logging started 04/23/18 00:25:31


Gurobi 6.5.1 (win64) logging started 04/23/18 00:45:25


Gurobi 6.5.1 (win64) logging started 04/23/18 00:51:36


Gurobi 6.5.1 (win64) logging started 04/23/18 00:57:09


Gurobi 6.5.1 (win64) logging started 04/23/18 01:00:17


Gurobi 6.5.1 (win64) logging started 04/23/18 01:08:26


Gurobi 6.5.1 (win64) logging started 04/23/18 01:12:55


Gurobi 6.5.1 (win64) logging started 04/23/18 01:44:05


Gurobi 6.5.1 (win64) logging started 04/23/18 02:17:32


Gurobi 6.5.1 (win64) logging started 04/23/18 02:21:24


Gurobi 6.5.1 (win64) logging started 04/23/18 11:31:05


Gurobi 6.5.1 (win64) logging started 04/23/18 11:32:25


Gurobi 6.5.1 (win64) logging started 04/23/18 12:21:56


Gurobi 6.5.1 (win64) logging started 04/23/18 12:41:04


Gurobi 6.5.1 (win64) logging started 04/23/18 12:50:38


Gurobi 6.5.1 (win64) logging started 04/23/18 12:56:28


Gurobi 6.5.1 (win64) logging started 04/23/18 14:05:17


Gurobi 6.5.1 (win64) logging started 04/23/18 14:12:28


Gurobi 6.5.1 (win64) logging started 04/23/18 14:13:26


Gurobi 6.5.1 (win64) logging started 04/23/18 14:16:24


Gurobi 6.5.1 (win64) logging started 04/23/18 14:22:19


Gurobi 6.5.1 (win64) logging started 04/23/18 14:44:47


Gurobi 6.5.1 (win64) logging started 04/23/18 14:48:52


Gurobi 6.5.1 (win64) logging started 04/23/18 14:51:49


Gurobi 6.5.1 (win64) logging started 04/23/18 14:52:38


Gurobi 6.5.1 (win64) logging started 04/23/18 14:55:20


Gurobi 6.5.1 (win64) logging started 04/23/18 14:56:05


Gurobi 6.5.1 (win64) logging started 04/23/18 17:06:14


Gurobi 6.5.1 (win64) logging started 04/24/18 14:32:36


Gurobi 6.5.1 (win64) logging started 04/24/18 14:33:44


Gurobi 6.5.1 (win64) logging started 04/24/18 15:08:50


Gurobi 6.5.1 (win64) logging started 04/25/18 10:42:20


Gurobi 6.5.1 (win64) logging started 04/27/18 11:30:23


Gurobi 6.5.1 (win64) logging started 04/27/18 11:42:32


Gurobi 6.5.1 (win64) logging started 04/27/18 11:44:29


Gurobi 6.5.1 (win64) logging started 04/27/18 11:44:50


Gurobi 6.5.1 (win64) logging started 04/27/18 11:50:37


Gurobi 6.5.1 (win64) logging started 04/27/18 13:45:28


Gurobi 6.5.1 (win64) logging started 04/27/18 13:46:01


Gurobi 6.5.1 (win64) logging started 04/27/18 13:51:37


Gurobi 6.5.1 (win64) logging started 04/27/18 13:56:32


Gurobi 6.5.1 (win64) logging started 04/27/18 13:57:21


Gurobi 6.5.1 (win64) logging started 04/27/18 15:01:13


Gurobi 6.5.1 (win64) logging started 04/27/18 15:01:35


Gurobi 6.5.1 (win64) logging started 04/27/18 15:02:52


Gurobi 6.5.1 (win64) logging started 04/27/18 15:04:05


Gurobi 6.5.1 (win64) logging started 04/27/18 15:07:44


Gurobi 6.5.1 (win64) logging started 04/27/18 15:20:48


Gurobi 6.5.1 (win64) logging started 04/27/18 15:30:52


Gurobi 6.5.1 (win64) logging started 04/27/18 15:36:18


Gurobi 6.5.1 (win64) logging started 04/27/18 15:43:04


Gurobi 6.5.1 (win64) logging started 04/27/18 15:44:35


Gurobi 6.5.1 (win64) logging started 04/27/18 16:10:44


Gurobi 6.5.1 (win64) logging started 04/27/18 16:11:46


Gurobi 6.5.1 (win64) logging started 04/27/18 16:17:57


Gurobi 6.5.1 (win64) logging started 04/27/18 16:18:16


Gurobi 6.5.1 (win64) logging started 04/27/18 16:19:36


Gurobi 6.5.1 (win64) logging started 04/27/18 16:42:03


Gurobi 6.5.1 (win64) logging started 04/27/18 16:42:13


Gurobi 6.5.1 (win64) logging started 04/27/18 17:06:05


Gurobi 6.5.1 (win64) logging started 04/27/18 17:11:57


Gurobi 6.5.1 (win64) logging started 04/27/18 17:35:07


Gurobi 6.5.1 (win64) logging started 04/28/18 17:31:43


Gurobi 6.5.1 (win64) logging started 04/28/18 17:33:37


Gurobi 6.5.1 (win64) logging started 04/28/18 17:34:26


Gurobi 6.5.1 (win64) logging started 04/28/18 18:45:30


Gurobi 6.5.1 (win64) logging started 04/28/18 18:55:11


Gurobi 6.5.1 (win64) logging started 04/28/18 19:05:48


Gurobi 6.5.1 (win64) logging started 04/28/18 19:27:43


Gurobi 6.5.1 (win64) logging started 04/30/18 10:53:02


Gurobi 6.5.1 (win64) logging started 04/30/18 11:00:21


Gurobi 6.5.1 (win64) logging started 04/30/18 11:09:25


Gurobi 6.5.1 (win64) logging started 04/30/18 11:38:05


Gurobi 6.5.1 (win64) logging started 04/30/18 11:38:30


Gurobi 6.5.1 (win64) logging started 04/30/18 11:39:27


Gurobi 6.5.1 (win64) logging started 04/30/18 11:44:16


Gurobi 6.5.1 (win64) logging started 04/30/18 11:46:23


Gurobi 6.5.1 (win64) logging started 04/30/18 11:47:47


Gurobi 6.5.1 (win64) logging started 04/30/18 11:50:40


Gurobi 6.5.1 (win64) logging started 04/30/18 11:53:16


Gurobi 6.5.1 (win64) logging started 04/30/18 12:59:21


Gurobi 6.5.1 (win64) logging started 04/30/18 13:03:42


Gurobi 6.5.1 (win64) logging started 04/30/18 13:13:49


Gurobi 6.5.1 (win64) logging started 04/30/18 13:38:49


Gurobi 6.5.1 (win64) logging started 04/30/18 16:36:01


Gurobi 6.5.1 (win64) logging started 04/30/18 16:51:12


Gurobi 6.5.1 (win64) logging started 04/30/18 17:24:41


Gurobi 6.5.1 (win64) logging started 04/30/18 17:29:19


Gurobi 6.5.1 (win64) logging started 04/30/18 17:29:55


Gurobi 6.5.1 (win64) logging started 04/30/18 17:32:19


Gurobi 6.5.1 (win64) logging started 04/30/18 17:34:09


Gurobi 6.5.1 (win64) logging started 04/30/18 17:36:15


Gurobi 6.5.1 (win64) logging started 04/30/18 17:55:10


Gurobi 6.5.1 (win64) logging started 04/30/18 18:09:42


Gurobi 6.5.1 (win64) logging started 04/30/18 18:14:24


Gurobi 6.5.1 (win64) logging started 04/30/18 18:16:06


Gurobi 6.5.1 (win64) logging started 04/30/18 18:52:30


Gurobi 6.5.1 (win64) logging started 05/01/18 12:53:39


Gurobi 6.5.1 (win64) logging started 05/01/18 12:54:16


Gurobi 6.5.1 (win64) logging started 05/01/18 12:55:13


Gurobi 6.5.1 (win64) logging started 05/01/18 13:10:51


Gurobi 6.5.1 (win64) logging started 05/01/18 13:12:46


Gurobi 6.5.1 (win64) logging started 05/01/18 13:18:57


Gurobi 6.5.1 (win64) logging started 05/01/18 13:23:41


Gurobi 6.5.1 (win64) logging started 05/01/18 13:30:25


Gurobi 6.5.1 (win64) logging started 05/01/18 13:31:50


Gurobi 6.5.1 (win64) logging started 05/01/18 13:34:47


Gurobi 6.5.1 (win64) logging started 05/01/18 13:39:09


Gurobi 6.5.1 (win64) logging started 05/01/18 13:41:06


Gurobi 6.5.1 (win64) logging started 05/01/18 13:43:40


Gurobi 6.5.1 (win64) logging started 05/01/18 14:09:50


Gurobi 6.5.1 (win64) logging started 05/01/18 14:18:03


Gurobi 6.5.1 (win64) logging started 05/01/18 14:21:55


Gurobi 6.5.1 (win64) logging started 05/01/18 15:51:43


Gurobi 6.5.1 (win64) logging started 05/01/18 16:03:41


Gurobi 6.5.1 (win64) logging started 05/02/18 11:33:49


Gurobi 6.5.1 (win64) logging started 05/07/18 17:55:25


Gurobi 6.5.1 (win64) logging started 05/07/18 18:11:01


Gurobi 6.5.1 (win64) logging started 05/07/18 21:28:04


Gurobi 6.5.1 (win64) logging started 05/08/18 17:04:46


Gurobi 7.0.2 (win64, Python) logging started 05/11/18 11:11:37


Gurobi 6.5.1 (win64) logging started 05/11/18 14:20:51

